
--- Job MedianLP.gms Start 06/14/21 22:23:20 34.3.0 rac355f3 WEX-WEI x86 64bit/MS Windows
--- Applying:
    C:\GAMS\34\gmsprmNT.txt
    C:\Users\Erwin\Documents\GAMS\gamsconfig.yaml
--- GAMS Parameters defined
    Input D:\projects\blog\QuantileRegression\MedianLP.gms
    PageWidth 120
    PageSize 0
    PageContr 3
    Action CE
    ScrDir D:\projects\blog\QuantileRegression\225a\
    SysDir C:\GAMS\34\
    WorkDir D:\projects\blog\QuantileRegression\
    LogOption 3
    DFormat 0
    TFormat 0
    ErrorLog 99
    IDE 1
Licensee: Eval License                                   S201210/0001CO-GEN
          Amsterdam Optimization Modeling Group,                     DCE378
          C:\Users\Erwin\Documents\GAMS\gamslice.txt
          Evaluation license: Not for commercial or production use
GAMS 34.3.0   Copyright (C) 1987-2021 GAMS Development. All rights reserved
--- Starting compilation
--- MedianLP.gms(76) 3 Mb
--- Starting execution: elapsed 0:00:00.042
--- MedianLP.gms(22) 4 Mb
--- Generating LP model medianLP1
--- MedianLP.gms(48) 4 Mb
---   11 rows  7 columns  26 non-zeroes
--- Executing CPLEX (Solvelink=2): elapsed 0:00:00.119

IBM ILOG CPLEX   34.3.0 rac355f3 Released Feb 25, 2021 WEI x86 64bit/MS Window

--- GAMS/Cplex Link licensed for continuous and discrete problems.
--- GMO memory 0.50 Mb (peak 0.50 Mb)
--- Dictionary memory 0.00 Mb
--- Cplex 20.1.0.0 link memory 0.00 Mb (peak 0.00 Mb)
--- Starting Cplex

Version identifier: 20.1.0.0 | 2020-11-10 | 9bedb6d68
CPXPARAM_Advance                                 0
CPXPARAM_Simplex_Display                         2
CPXPARAM_Threads                                 1
CPXPARAM_MIP_Display                             4
CPXPARAM_MIP_Tolerances_AbsMIPGap                0
Tried aggregator 1 time.
LP Presolve eliminated 0 rows and 1 columns.
Reduced LP has 10 rows, 6 columns, and 20 nonzeros.
Presolve time = 0.00 sec. (0.01 ticks)

Iteration      Dual Objective            In Variable           Out Variable
     1               0.000000                      m       bound2(i2) slack
     2               0.671520                  e(i1)       bound1(i1) slack
     3               0.671520                  e(i2)       bound1(i5) slack
     4               0.929683                  e(i3)       bound2(i3) slack
     5               0.929683                  e(i5)       bound2(i4) slack

--- LP status (1): optimal.
--- Cplex Time: 0.06sec (det. 0.02 ticks)


Optimal solution found
Objective:            0.929683

--- Reading solution for model medianLP1
--- Executing after solve: elapsed 0:00:00.534
--- MedianLP.gms(50) 4 Mb
--- Generating LP model medianLP2
--- MedianLP.gms(72) 4 Mb
---   6 rows  12 columns  26 non-zeroes
--- Executing CPLEX (Solvelink=2): elapsed 0:00:00.552

IBM ILOG CPLEX   34.3.0 rac355f3 Released Feb 25, 2021 WEI x86 64bit/MS Window

--- GAMS/Cplex Link licensed for continuous and discrete problems.
--- GMO memory 0.50 Mb (peak 0.50 Mb)
--- Dictionary memory 0.00 Mb
--- Cplex 20.1.0.0 link memory 0.00 Mb (peak 0.00 Mb)
--- Starting Cplex

Version identifier: 20.1.0.0 | 2020-11-10 | 9bedb6d68
CPXPARAM_Advance                                 0
CPXPARAM_Simplex_Display                         2
CPXPARAM_Threads                                 1
CPXPARAM_MIP_Display                             4
CPXPARAM_MIP_Tolerances_AbsMIPGap                0
Tried aggregator 1 time.
LP Presolve eliminated 0 rows and 1 columns.
Aggregator did 1 substitutions.
Reduced LP has 4 rows, 10 columns, and 16 nonzeros.
Presolve time = 0.00 sec. (0.01 ticks)

Iteration      Dual Objective            In Variable           Out Variable
     1               0.671520             e2(i2,'-')        split(i2) artif
     2               0.671520             e2(i1,'+')        split(i3) artif
     3               0.929683             e2(i3,'-')        split(i5) artif
     4               0.929683             e2(i5,'+')        split(i4) artif

--- LP status (1): optimal.
--- Cplex Time: 0.09sec (det. 0.01 ticks)


Optimal solution found
Objective:            0.929683

--- Reading solution for model medianLP2
--- Executing after solve: elapsed 0:00:00.816
--- MedianLP.gms(76) 4 Mb
*** Status: Normal completion
--- Job MedianLP.gms Stop 06/14/21 22:23:21 elapsed 0:00:00.823
